sifdecoder -A pc64.lnx.gfo -st   BIGBANK

 Problem name: BIGBANK

 Double precision version will be formed

 The objective function uses 1 nonlinear group
 
 There are 1112 linear equality constraints
 
 There are 1922 variables bounded from below and above 
 There are 308 fixed variables
 
 
 File successfully decoded
 CUTEST: tools (double precision version) compiled successfully
 CUTEst: ipopt (double precision version) compiled successfully

******************************************************************************
This program contains Ipopt, a library for large-scale nonlinear optimization.
 Ipopt is released as open source code under the Eclipse Public License (EPL).
         For more information visit http://projects.coin-or.org/Ipopt
******************************************************************************

This is Ipopt version trunk, running with linear solver ma57.

Number of nonzeros in equality constraint Jacobian...:     3844
Number of nonzeros in inequality constraint Jacobian.:        0
Number of nonzeros in Lagrangian Hessian.............:     1366

Total number of variables............................:     1922
                     variables with only lower bounds:        0
                variables with lower and upper bounds:     1922
                     variables with only upper bounds:        0
Total number of equality constraints.................:     1112
Total number of inequality constraints...............:        0
        inequality constraints with only lower bounds:        0
   inequality constraints with lower and upper bounds:        0
        inequality constraints with only upper bounds:        0

iter    objective    inf_pr   inf_du lg(mu)  ||d||  lg(rg) alpha_du alpha_pr  ls
   0 -5.2684969e+03 1.19e+00 1.31e+01  -1.0 0.00e+00    -  0.00e+00 0.00e+00   0
   1 -1.5865354e+04 7.67e-08 2.75e+01  -1.0 9.04e+01    -  3.59e-02 1.00e+00f  1
   2 -3.2820141e+04 1.66e-08 1.80e+01  -1.0 3.65e+02    -  7.29e-02 3.92e-01f  1
   3 -1.1818793e+05 4.53e-08 9.39e+00  -1.0 8.27e+02    -  8.07e-02 9.38e-01f  1
   4 -4.1254481e+05 1.79e-08 5.81e+00  -1.0 2.85e+03    -  1.10e-01 1.00e+00f  1
   5 -1.1949263e+06 6.92e-09 3.91e+00  -1.0 8.39e+03    -  1.46e-01 1.00e+00f  1
   6 -2.5365169e+06 3.68e-09 2.26e+00  -1.0 1.76e+04    -  2.22e-01 1.00e+00f  1
   7 -3.7415928e+06 1.80e-09 8.62e-01  -1.0 3.77e+04    -  3.32e-01 1.00e+00f  1
   8 -4.1676592e+06 1.35e-09 2.48e-01  -1.0 4.34e+04    -  5.52e-01 1.00e+00f  1
   9 -4.2053293e+06 5.07e-10 4.26e-02  -1.0 1.95e+04    -  8.62e-01 1.00e+00f  1
iter    objective    inf_pr   inf_du lg(mu)  ||d||  lg(rg) alpha_du alpha_pr  ls
  10 -4.2056913e+06 6.55e-11 1.20e-03  -1.0 2.17e+03    -  9.90e-01 1.00e+00f  1
  11 -4.2056914e+06 1.46e-11 3.02e-06  -1.0 2.94e+01    -  9.90e-01 1.00e+00f  1
  12 -4.2056914e+06 1.18e-11 3.02e-08  -1.0 6.50e-03    -  9.90e-01 1.00e+00h  1
  13 -4.2056914e+06 1.46e-11 1.53e-10  -1.0 3.83e-10    -  9.95e-01 1.00e+00h  1
  14 -4.2056931e+06 1.58e-10 6.52e-02  -2.5 5.00e+00    -  1.00e+00 1.00e+00f  1
  15 -4.2056932e+06 5.96e-11 1.31e-02  -2.5 1.34e-01    -  1.00e+00 1.00e+00f  1
  16 -4.2056933e+06 1.53e-11 7.15e-03  -3.8 1.69e-01    -  1.00e+00 1.00e+00f  1
  17 -4.2056933e+06 1.55e-11 1.78e-03  -3.8 1.71e-02    -  1.00e+00 1.00e+00f  1
  18 -4.2056933e+06 2.23e-11 3.63e-04  -3.8 7.16e-03    -  1.00e+00 1.00e+00f  1
  19 -4.2056933e+06 2.36e-11 2.73e-04  -5.7 1.28e-02    -  1.00e+00 1.00e+00f  1
iter    objective    inf_pr   inf_du lg(mu)  ||d||  lg(rg) alpha_du alpha_pr  ls
  20 -4.2056933e+06 1.62e-11 6.65e-05  -5.7 2.93e-03    -  1.00e+00 1.00e+00f  1
  21 -4.2056933e+06 2.92e-11 1.49e-05  -5.7 1.37e-03    -  1.00e+00 1.00e+00f  1
  22 -4.2056933e+06 1.87e-11 6.06e-06  -8.6 9.54e-04    -  1.00e+00 1.00e+00f  1
  23 -4.2056933e+06 1.82e-11 1.52e-06  -8.6 4.34e-04    -  1.00e+00 1.00e+00h  1
  24 -4.2056933e+06 1.46e-11 3.77e-07  -8.6 2.16e-04    -  1.00e+00 1.00e+00h  1
  25 -4.2056933e+06 1.82e-11 9.14e-08  -8.6 1.06e-04    -  1.00e+00 1.00e+00h  1
  26 -4.2056933e+06 2.56e-11 2.01e-08  -8.6 4.99e-05    -  1.00e+00 1.00e+00h  1
  27 -4.2056933e+06 1.46e-11 6.05e-09  -9.0 2.74e-05    -  1.00e+00 1.00e+00h  1

Number of Iterations....: 27

                                   (scaled)                 (unscaled)
Objective...............:  -4.2056932995377183e+06   -4.2056932995377183e+06
Dual infeasibility......:   6.0490108122257438e-09    6.0490108122257438e-09
Constraint violation....:   1.4551915228366852e-11    1.4551915228366852e-11
Complementarity.........:   2.1236398190364053e-09    2.1236398190364053e-09
Overall NLP error.......:   6.0490108122257438e-09    6.0490108122257438e-09


Number of objective function evaluations             = 28
Number of objective gradient evaluations             = 28
Number of equality constraint evaluations            = 28
Number of inequality constraint evaluations          = 0
Number of equality constraint Jacobian evaluations   = 28
Number of inequality constraint Jacobian evaluations = 0
Number of Lagrangian Hessian evaluations             = 27
Total CPU secs in IPOPT (w/o function evaluations)   =      0.308
Total CPU secs in NLP function evaluations           =      0.066

EXIT: Optimal Solution Found.

************************ CUTEst statistics ************************


 Package used            :  IPOPT
 Problem                 :  BIGBANK   
 # variables             =            2230
 # constraints           =            1112
 # objective functions   =        0.5700000E+02
 # objective gradients   =        0.2900000E+02
 # objective Hessians    =        0.2800000E+02
 # Hessian-vector prdct  =        0.0000000E+00
 # constraints functions =        0.5800000E+02
 # constraints gradients =        0.3000000E+02
 # constraints Hessians  =        0.2800000E+02
 Exit code               =               0
 Final f                 =       -4.2056932995377183D+06
 Bounds feasibility      =        0.0000000000000000D+00
 Set up time             =            0.15 seconds
 Solve time              =            0.83 seconds


******************************************************************

